p edge 64 512
e 1 37
e 1 30
e 1 46
e 1 8
e 1 12
e 1 15
e 1 41
e 1 18
e 1 33
e 1 32
e 1 45
e 1 2
e 1 52
e 1 20
e 1 4
e 1 16
e 1 11
e 2 19
e 2 54
e 2 35
e 2 10
e 2 41
e 2 27
e 2 17
e 2 57
e 2 20
e 2 7
e 2 39
e 2 26
e 2 32
e 3 29
e 3 44
e 3 58
e 3 25
e 3 34
e 3 48
e 3 35
e 3 5
e 3 51
e 3 53
e 3 63
e 3 30
e 3 23
e 4 57
e 4 60
e 4 29
e 4 46
e 4 14
e 4 47
e 4 23
e 4 64
e 4 38
e 4 28
e 4 25
e 4 30
e 4 15
e 4 37
e 4 50
e 4 27
e 4 10
e 5 24
e 5 44
e 5 53
e 5 50
e 5 33
e 5 55
e 5 45
e 5 60
e 6 15
e 6 56
e 6 63
e 6 24
e 6 47
e 6 39
e 6 19
e 6 36
e 6 27
e 6 48
e 6 34
e 6 53
e 6 49
e 6 51
e 6 44
e 6 54
e 7 40
e 7 28
e 7 50
e 7 13
e 7 22
e 7 32
e 7 20
e 7 9
e 7 21
e 7 58
e 7 44
e 7 51
e 7 46
e 7 37
e 7 26
e 7 19
e 7 30
e 7 27
e 7 64
e 7 43
e 7 53
e 7 15
e 7 39
e 7 18
e 8 17
e 8 19
e 8 40
e 8 35
e 8 45
e 8 61
e 8 29
e 8 46
e 8 36
e 8 37
e 8 14
e 8 41
e 8 30
e 8 59
e 8 9
e 8 26
e 9 40
e 9 14
e 9 15
e 9 19
e 9 49
e 9 55
e 9 59
e 9 45
e 9 20
e 9 63
e 9 17
e 9 11
e 9 47
e 9 25
e 9 37
e 9 41
e 10 59
e 10 39
e 10 30
e 10 47
e 10 32
e 10 45
e 10 29
e 10 19
e 10 27
e 10 55
e 10 16
e 10 53
e 10 63
e 10 54
e 10 15
e 10 24
e 11 50
e 11 49
e 11 26
e 11 43
e 11 47
e 11 41
e 11 54
e 11 48
e 11 23
e 11 12
e 12 55
e 12 60
e 12 41
e 12 30
e 12 27
e 12 16
e 12 63
e 12 45
e 12 21
e 12 34
e 12 32
e 13 64
e 13 14
e 13 51
e 13 24
e 13 19
e 13 47
e 13 54
e 13 45
e 13 63
e 13 32
e 13 57
e 13 62
e 13 56
e 13 15
e 14 15
e 14 24
e 14 27
e 14 49
e 14 26
e 14 53
e 14 17
e 14 42
e 14 36
e 14 60
e 14 38
e 14 52
e 14 33
e 14 43
e 14 23
e 14 45
e 15 28
e 15 17
e 15 44
e 15 42
e 15 35
e 15 36
e 15 54
e 15 25
e 15 16
e 15 18
e 15 27
e 15 24
e 15 45
e 15 21
e 15 19
e 15 49
e 15 53
e 15 31
e 16 60
e 16 38
e 16 23
e 16 47
e 16 49
e 16 24
e 16 48
e 16 62
e 16 57
e 16 30
e 17 29
e 17 64
e 17 30
e 17 25
e 17 38
e 17 60
e 17 46
e 17 21
e 17 47
e 17 33
e 17 57
e 17 18
e 17 52
e 18 26
e 18 58
e 18 47
e 18 55
e 18 60
e 18 36
e 18 51
e 18 42
e 18 24
e 18 46
e 18 32
e 19 56
e 19 53
e 19 21
e 19 46
e 19 36
e 19 39
e 19 54
e 19 47
e 19 63
e 19 50
e 19 43
e 19 34
e 19 62
e 19 57
e 20 29
e 20 46
e 20 25
e 20 27
e 20 51
e 20 57
e 20 21
e 20 32
e 20 52
e 20 31
e 20 40
e 20 36
e 21 35
e 21 38
e 21 58
e 21 45
e 21 32
e 21 52
e 21 30
e 21 61
e 21 25
e 22 43
e 22 60
e 22 26
e 22 56
e 22 54
e 22 35
e 22 59
e 23 46
e 23 51
e 23 45
e 23 61
e 23 31
e 23 39
e 23 64
e 23 28
e 23 47
e 23 53
e 24 50
e 24 44
e 24 54
e 24 51
e 24 60
e 24 27
e 24 41
e 24 28
e 24 31
e 24 46
e 24 56
e 24 34
e 24 26
e 25 60
e 25 39
e 25 37
e 25 56
e 25 31
e 26 51
e 26 48
e 26 42
e 26 57
e 26 39
e 26 43
e 26 61
e 26 35
e 26 62
e 26 60
e 27 49
e 27 52
e 27 39
e 27 33
e 27 45
e 27 37
e 27 58
e 27 41
e 27 42
e 28 56
e 28 38
e 28 40
e 28 52
e 28 32
e 28 55
e 28 39
e 28 46
e 28 60
e 29 44
e 29 35
e 29 58
e 29 41
e 29 56
e 29 60
e 29 40
e 29 38
e 29 32
e 29 48
e 30 40
e 30 41
e 30 45
e 30 57
e 30 62
e 30 51
e 30 54
e 30 32
e 30 53
e 30 38
e 30 48
e 31 41
e 31 51
e 31 43
e 31 35
e 31 59
e 31 63
e 31 44
e 31 38
e 31 61
e 31 33
e 32 47
e 32 38
e 32 49
e 32 58
e 32 48
e 32 44
e 32 59
e 33 59
e 33 34
e 33 64
e 33 49
e 33 46
e 33 62
e 33 45
e 34 63
e 34 64
e 34 35
e 34 44
e 34 55
e 34 40
e 34 49
e 35 59
e 35 60
e 35 42
e 35 45
e 35 38
e 36 45
e 36 54
e 36 41
e 36 39
e 36 60
e 36 56
e 36 61
e 36 50
e 37 63
e 37 43
e 37 57
e 37 60
e 37 38
e 37 58
e 37 47
e 37 40
e 37 45
e 37 59
e 38 60
e 38 57
e 38 55
e 38 48
e 38 53
e 38 43
e 38 40
e 38 45
e 39 48
e 39 55
e 39 64
e 40 60
e 40 49
e 40 61
e 40 63
e 40 50
e 40 42
e 40 56
e 40 55
e 40 41
e 40 62
e 40 53
e 40 43
e 41 57
e 41 64
e 41 50
e 41 55
e 41 51
e 43 62
e 43 57
e 43 56
e 43 63
e 44 45
e 44 46
e 44 52
e 44 50
e 44 59
e 44 56
e 45 59
e 45 62
e 45 60
e 45 50
e 46 57
e 46 61
e 46 55
e 46 62
e 46 47
e 47 56
e 48 57
e 48 54
e 48 55
e 48 64
e 48 62
e 49 56
e 49 61
e 49 62
e 50 54
e 50 60
e 50 59
e 50 62
e 50 55
e 50 63
e 50 51
e 51 62
e 52 56
e 52 59
e 52 53
e 52 62
e 52 60
e 53 64
e 53 61
e 54 55
e 54 63
e 56 57
e 56 62
e 57 64
e 57 60
e 58 60
e 58 64
e 59 60
